2069
4705
614
7440
2632
2108
6139
7614
4668
1481
8757
7135
8604
1309
5663
7622
2049
5521
8702
9015
1890
10171
1474
3371
2994
4206
8257
10076
4419
3876
6115
6384
9540
9223
917
7087
1504
8904
3452
7561
5017
6990
1489
1496
9349
9474
9992
2505
5866
2268
8499
